10 52 20 22 23 34 0 7 8 18 37 73 4 31 45 76 41 2 56 13 16 71 58 53 9 63 75 79 27 54 32 1 24 12 57 72 6 29 55 3 5 74 30 42 28 49 64 46 47 48 25 43 26 50 61 70 68 19 15 38 67 11 33 39 66 62 35 40 59 77 44 21 17 69 78 51 36 60 65 14